Maximize
   x1 +  x2 +  x3 +  x4 +  x5 +  x6 

Subject To
DEG1: x1 + x2 <= 1
DEG2: x1 + x3 + x4 <= 1
DEG3: x2 + x3 + x5 <= 1
DEG4: x4 + x6 <= 1
DEG5: x5 + x6 <= 1
(1,4)-SEP_#1: x1 + x2 +x4+x6 -x1 -x3 -x4 -x2 -x3 -x5 <= 1
(1,4)-SEP_#2: x1 + x2 +x4+x6 -x1 -x3 -x4 -x5 -x6 <= 1
(1,5)-SEP_#1: x1 + x2 +x5+x6 -x1 -x3 -x4 -x2 -x3 -x5 <= 1
(1,5)-SEP_#2: x1 + x2 +x5+x6 -x2 -x3 -x5 -x4 -x6 <= 1
(2,5)-SEP_#1: x1 + x3 + x4 +x5+x6 -x2 -x3 -x5 -x4 -x6 <= 1
(3,4)-SEP_#1: x2 + x3 + x5 +x4+x6 -x1 -x3 -x4 -x5 -x6 <= 1

Bounds

Binaries
 x1  x2  x3  x4  x5  x6 

End
